N = 100;
MinK = 10;
Capacity = 200;

Scale = 10;
DistanceRoundingMode = Floor;
X = array1d(0..N, [40, 45, 45, 42, 42, 42, 40, 40, 38, 38, 35, 35, 25, 22, 22, 20, 20, 18, 15, 15, 30, 30, 28, 28, 25, 25, 25, 23, 23, 20, 20, 10, 10, 8, 8, 5, 5, 2, 0, 0, 35, 35, 33, 33, 32, 30, 30, 30, 28, 28, 26, 25, 25, 44, 42, 42, 40, 40, 38, 38, 35, 50, 50, 50, 48, 48, 47, 47, 45, 45, 95, 95, 53, 92, 53, 45, 90, 88, 88, 87, 85, 85, 75, 72, 70, 68, 66, 65, 65, 63, 60, 60, 67, 65, 65, 62, 60, 60, 58, 55, 55]);
Y = array1d(0..N, [50, 68, 70, 66, 68, 65, 69, 66, 68, 70, 66, 69, 85, 75, 85, 80, 85, 75, 75, 80, 50, 52, 52, 55, 50, 52, 55, 52, 55, 50, 55, 35, 40, 40, 45, 35, 45, 40, 40, 45, 30, 32, 32, 35, 30, 30, 32, 35, 30, 35, 32, 30, 35, 5, 10, 15, 5, 15, 5, 15, 5, 30, 35, 40, 30, 40, 35, 40, 30, 35, 30, 35, 30, 30, 35, 65, 35, 30, 35, 30, 25, 35, 55, 55, 58, 60, 55, 55, 60, 58, 55, 60, 85, 85, 82, 80, 80, 85, 75, 80, 85]);

Demands = array1d(1..N, [10, 30, 10, 10, 10, 20, 20, 20, 10, 10, 10, 20, 30, 10, 40, 40, 20, 20, 10, 10, 20, 20, 10, 10, 40, 10, 10, 20, 10, 10, 20, 30, 40, 20, 10, 10, 20, 30, 20, 10, 10, 20, 10, 10, 10, 30, 10, 10, 10, 10, 10, 10, 20, 40, 10, 30, 40, 30, 10, 20, 10, 20, 50, 10, 10, 10, 10, 10, 10, 30, 20, 10, 10, 50, 20, 10, 10, 20, 10, 10, 30, 20, 10, 20, 30, 10, 20, 30, 10, 10, 10, 20, 40, 10, 30, 10, 30, 20, 10, 20]);

ServiceTimes = array1d(1..N, [90, 90, 90, 90, 90, 90, 90, 90, 90, 90, 90, 90, 90, 90, 90, 90, 90, 90, 90, 90, 90, 90, 90, 90, 90, 90, 90, 90, 90, 90, 90, 90, 90, 90, 90, 90, 90, 90, 90, 90, 90, 90, 90, 90, 90, 90, 90, 90, 90, 90, 90, 90, 90, 90, 90, 90, 90, 90, 90, 90, 90, 90, 90, 90, 90, 90, 90, 90, 90, 90, 90, 90, 90, 90, 90, 90, 90, 90, 90, 90, 90, 90, 90, 90, 90, 90, 90, 90, 90, 90, 90, 90, 90, 90, 90, 90, 90, 90, 90, 90]);

TimeWindows = array2d(1..2, 0..N, [|
     0, 885, 802,  25, 699,  15, 580, 142, 220, 499, 331, 420, 617,  30, 541, 362, 448,  75, 142, 244,  10, 888, 776, 709,  25, 142, 582, 234, 523, 335, 422, 181,  31,  52, 719, 252, 639, 357, 457, 538, 236, 132,  27,  16, 332, 512, 417,  982, 601,  969, 783, 695, 883, 255, 150,  63, 359,  35, 439, 607, 529, 491, 235, 147, 601,  50, 802,  12, 712, 889, 353, 260, 422, 442, 323,  962, 175, 539,  78, 636, 744,  47, 344, 228, 425, 527, 141,  56, 614, 705,  20, 809, 331, 453, 260, 174,  64, 531,  30, 705, 608 |
  1236, 994, 893, 186, 810, 120, 743, 253, 359, 640, 436, 533, 756, 155, 646, 451, 555, 172, 291, 379, 137, 991, 919, 800, 184, 251, 741, 343, 616, 428, 531, 256, 170, 193, 848, 375, 742, 460, 544, 653, 349, 269, 190, 144, 439, 629, 540, 1127, 724, 1098, 912, 816, 998, 378, 293, 190, 462, 140, 566, 784, 662, 650, 344, 242, 724, 155, 899, 143, 799, 996, 490, 393, 533, 587, 442, 1103, 288, 678, 201, 763, 845, 201, 445, 375, 556, 640, 270, 173, 739, 834, 148, 916, 478, 540, 361, 261, 187, 652, 139, 858, 765
|]);
